c nIsolatedPIs 0
c maxPI 16
p cnf 93 232
c gate 17 -8 16 0
-8 -17 0
16 -17 0
8 -16 17 0
c gate 18 8 -16 0
8 -18 0
-16 -18 0
-8 16 18 0
c gate 19 -17 -18 0
-17 -19 0
-18 -19 0
17 18 19 0
c gate 20 -1 9 0
-1 -20 0
9 -20 0
1 -9 20 0
c gate 21 1 -9 0
1 -21 0
-9 -21 0
-1 9 21 0
c gate 22 2 -10 0
2 -22 0
-10 -22 0
-2 10 22 0
c gate 23 -2 10 0
-2 -23 0
10 -23 0
2 -10 23 0
c gate 24 -22 -23 0
-22 -24 0
-23 -24 0
22 23 24 0
c gate 25 -21 24 0
-21 -25 0
24 -25 0
21 -24 25 0
c gate 26 -20 25 0
-20 -26 0
25 -26 0
20 -25 26 0
c gate 27 4 -12 0
4 -27 0
-12 -27 0
-4 12 27 0
c gate 28 -4 12 0
-4 -28 0
12 -28 0
4 -12 28 0
c gate 29 -27 -28 0
-27 -29 0
-28 -29 0
27 28 29 0
c gate 30 -3 11 0
-3 -30 0
11 -30 0
3 -11 30 0
c gate 31 3 -11 0
3 -31 0
-11 -31 0
-3 11 31 0
c gate 32 -30 -31 0
-30 -32 0
-31 -32 0
30 31 32 0
c gate 33 29 32 0
29 -33 0
32 -33 0
-29 -32 33 0
c gate 34 26 33 0
26 -34 0
33 -34 0
-26 -33 34 0
c gate 35 6 -14 0
6 -35 0
-14 -35 0
-6 14 35 0
c gate 36 5 -13 0
5 -36 0
-13 -36 0
-5 13 36 0
c gate 37 -35 -36 0
-35 -37 0
-36 -37 0
35 36 37 0
c gate 38 -6 14 0
-6 -38 0
14 -38 0
6 -14 38 0
c gate 39 -5 13 0
-5 -39 0
13 -39 0
5 -13 39 0
c gate 40 -38 -39 0
-38 -40 0
-39 -40 0
38 39 40 0
c gate 41 37 40 0
37 -41 0
40 -41 0
-37 -40 41 0
c gate 42 7 -15 0
7 -42 0
-15 -42 0
-7 15 42 0
c gate 43 -7 15 0
-7 -43 0
15 -43 0
7 -15 43 0
c gate 44 -42 -43 0
-42 -44 0
-43 -44 0
42 43 44 0
c gate 45 19 44 0
19 -45 0
44 -45 0
-19 -44 45 0
c gate 46 41 45 0
41 -46 0
45 -46 0
-41 -45 46 0
c gate 47 34 46 0
34 -47 0
46 -47 0
-34 -46 47 0
c gate 48 -37 -38 0
-37 -48 0
-38 -48 0
37 38 48 0
c gate 49 -42 -48 0
-42 -49 0
-48 -49 0
42 48 49 0
c gate 50 -43 -49 0
-43 -50 0
-49 -50 0
43 49 50 0
c gate 51 -18 -50 0
-18 -51 0
-50 -51 0
18 50 51 0
c gate 52 -17 -51 0
-17 -52 0
-51 -52 0
17 51 52 0
c gate 53 -23 -25 0
-23 -53 0
-25 -53 0
23 25 53 0
c gate 54 -31 -53 0
-31 -54 0
-53 -54 0
31 53 54 0
c gate 55 -30 -54 0
-30 -55 0
-54 -55 0
30 54 55 0
c gate 56 -27 -55 0
-27 -56 0
-55 -56 0
27 55 56 0
c gate 57 -28 -56 0
-28 -57 0
-56 -57 0
28 56 57 0
c gate 58 46 57 0
46 -58 0
57 -58 0
-46 -57 58 0
c gate 59 -52 -58 0
-52 -59 0
-58 -59 0
52 58 59 0
c gate 60 -47 -59 0
-47 -60 0
-59 -60 0
47 59 60 0
c gate 61 -34 -57 0
-34 -61 0
-57 -61 0
34 57 61 0
c gate 62 -39 -61 0
-39 -62 0
-61 -62 0
39 61 62 0
c gate 63 37 -62 0
37 -63 0
-62 -63 0
-37 62 63 0
c gate 64 -38 -63 0
-38 -64 0
-63 -64 0
38 63 64 0
c gate 65 57 64 0
57 -65 0
64 -65 0
-57 -64 65 0
c gate 66 49 -65 0
49 -66 0
-65 -66 0
-49 65 66 0
c gate 67 -43 -66 0
-43 -67 0
-66 -67 0
43 66 67 0
c gate 68 -60 -67 0
-60 -68 0
-67 -68 0
60 67 68 0
c gate 69 -48 -65 0
-48 -69 0
-65 -69 0
48 65 69 0
c gate 70 -60 -69 0
-60 -70 0
-69 -70 0
60 69 70 0
c gate 71 60 -64 0
60 -71 0
-64 -71 0
-60 64 71 0
c gate 72 -70 -71 0
-70 -72 0
-71 -72 0
70 71 72 0
c gate 73 44 72 0
44 -73 0
72 -73 0
-44 -72 73 0
c gate 74 -42 -73 0
-42 -74 0
-73 -74 0
42 73 74 0
c gate 75 60 -74 0
60 -75 0
-74 -75 0
-60 74 75 0
c gate 76 -68 -75 0
-68 -76 0
-75 -76 0
68 75 76 0
c gate 77 19 -76 0
19 -77 0
-76 -77 0
-19 76 77 0
c gate 78 -19 76 0
-19 -78 0
76 -78 0
19 -76 78 0
c gate 79 -77 -78 0
-77 -79 0
-78 -79 0
77 78 79 0
c gate 80 -44 -72 0
-44 -80 0
-72 -80 0
44 72 80 0
c gate 81 -73 -80 0
-73 -81 0
-80 -81 0
73 80 81 0
c gate 82 -52 65 0
-52 -82 0
65 -82 0
52 -65 82 0
c gate 83 -48 52 0
-48 -83 0
52 -83 0
48 -52 83 0
c gate 84 -82 -83 0
-82 -84 0
-83 -84 0
82 83 84 0
c gate 85 44 84 0
44 -85 0
84 -85 0
-44 -84 85 0
c gate 86 -44 -84 0
-44 -86 0
-84 -86 0
44 84 86 0
c gate 87 -85 -86 0
-85 -87 0
-86 -87 0
85 86 87 0
c gate 88 81 -87 0
81 -88 0
-87 -88 0
-81 87 88 0
c gate 89 17 -42 0
17 -89 0
-42 -89 0
-17 42 89 0
c gate 90 18 50 0
18 -90 0
50 -90 0
-18 -50 90 0
c gate 91 -89 -90 0
-89 -91 0
-90 -91 0
89 90 91 0
c gate 92 -88 -91 0
-88 -92 0
-91 -92 0
88 91 92 0
c gate 93 -79 92 0
-79 -93 0
92 -93 0
79 -92 93 0
c PO
93 0
